NAME : mtspf.pid8726.gtsp
TYPE : ATSP
DIMENSION : 45
EDGE_WEIGHT_TYPE : EXPLICIT
EDGE_WEIGHT_FORMAT : FULL_MATRIX
EDGE_WEIGHT_SECTION
999999 5368709 5368709 5368709 5368709 5368736 5368737 5368736 5368735 5368737 5368738 5368739 5368738 5368717 5368718 5368717 5368716 5368719 5368720 5368721 5368720 5368714 5368715 5368716 5368715 5368739 5368738 5368739 5368740 5368747 5368746 5368747 5368748 5368757 5368758 5368759 5368758 5368740 5368741 5368742 5368741 5368737 5368736 5368737 5368738 
5368709 999999 5368709 5368709 5368709 5368753 5368754 5368753 5368752 5368732 5368733 5368732 5368731 5368766 5368765 5368764 5368765 5368752 5368751 5368750 5368751 5368761 5368760 5368759 5368760 5368740 5368739 5368738 5368739 5368726 5368725 5368726 5368727 5368756 5368757 5368756 5368755 5368735 5368736 5368737 5368736 5368738 5368737 5368736 5368737 
5368709 5368709 999999 5368709 5368709 5368744 5368745 5368744 5368743 5368729 5368730 5368729 5368728 5368763 5368762 5368761 5368762 5368749 5368750 5368749 5368748 5368758 5368757 5368756 5368757 5368739 5368738 5368737 5368738 5368727 5368726 5368727 5368728 5368745 5368746 5368745 5368744 5368728 5368729 5368730 5368729 5368737 5368736 5368735 5368736 
5368709 5368709 5368709 999999 5368709 5368750 5368751 5368750 5368749 5368735 5368736 5368735 5368734 5368769 5368768 5368767 5368768 5368755 5368754 5368753 5368754 5368764 5368763 5368762 5368763 5368743 5368742 5368741 5368742 5368729 5368728 5368729 5368730 5368745 5368746 5368745 5368744 5368734 5368735 5368736 5368735 5368741 5368740 5368739 5368740 
5368709 5368709 5368709 5368709 999999 5368748 5368749 5368748 5368747 5368729 5368730 5368729 5368728 5368755 5368754 5368753 5368754 5368741 5368740 5368739 5368740 5368748 5368747 5368746 5368747 5368725 5368724 5368723 5368724 5368719 5368718 5368719 5368720 5368759 5368760 5368759 5368758 5368732 5368733 5368734 5368733 5368723 5368722 5368721 5368722 
5368709 5368709 5368709 5368709 5368709 999999 0 10737418 10737418 6368709 6368709 6368709 6368709 6368709 6368709 6368709 6368709 6368709 6368709 6368709 6368709 6368709 6368709 6368709 6368709 6368709 6368709 6368709 6368709 6368709 6368709 6368709 6368709 6368709 6368709 6368709 6368709 6368709 6368709 6368709 6368709 6368709 6368709 6368709 6368709 
5368709 5368709 5368709 5368709 5368709 10737418 999999 0 10737418 6368709 6368709 6368709 6368709 6368709 6368709 6368709 6368709 6368709 6368709 6368709 6368709 6368709 6368709 6368709 6368709 6368709 6368709 6368709 6368709 6368709 6368709 6368709 6368709 6368709 6368709 6368709 6368709 6368709 6368709 6368709 6368709 6368709 6368709 6368709 6368709 
5368709 5368709 5368709 5368709 5368709 10737418 10737418 999999 0 6368709 6368709 6368709 6368709 6368709 6368709 6368709 6368709 6368709 6368709 6368709 6368709 6368709 6368709 6368709 6368709 6368709 6368709 6368709 6368709 6368709 6368709 6368709 6368709 6368709 6368709 6368709 6368709 6368709 6368709 6368709 6368709 6368709 6368709 6368709 6368709 
5368709 5368709 5368709 5368709 5368709 0 10737418 10737418 999999 6368709 6368709 6368709 6368709 6368709 6368709 6368709 6368709 6368709 6368709 6368709 6368709 6368709 6368709 6368709 6368709 6368709 6368709 6368709 6368709 6368709 6368709 6368709 6368709 6368709 6368709 6368709 6368709 6368709 6368709 6368709 6368709 6368709 6368709 6368709 6368709 
5368709 5368709 5368709 5368709 5368709 6368709 6368709 6368709 6368709 999999 0 10737418 10737418 6368709 6368709 6368709 6368709 6368709 6368709 6368709 6368709 6368709 6368709 6368709 6368709 6368709 6368709 6368709 6368709 6368709 6368709 6368709 6368709 6368709 6368709 6368709 6368709 6368709 6368709 6368709 6368709 6368709 6368709 6368709 6368709 
5368709 5368709 5368709 5368709 5368709 6368709 6368709 6368709 6368709 10737418 999999 0 10737418 6368709 6368709 6368709 6368709 6368709 6368709 6368709 6368709 6368709 6368709 6368709 6368709 6368709 6368709 6368709 6368709 6368709 6368709 6368709 6368709 6368709 6368709 6368709 6368709 6368709 6368709 6368709 6368709 6368709 6368709 6368709 6368709 
5368709 5368709 5368709 5368709 5368709 6368709 6368709 6368709 6368709 10737418 10737418 999999 0 6368709 6368709 6368709 6368709 6368709 6368709 6368709 6368709 6368709 6368709 6368709 6368709 6368709 6368709 6368709 6368709 6368709 6368709 6368709 6368709 6368709 6368709 6368709 6368709 6368709 6368709 6368709 6368709 6368709 6368709 6368709 6368709 
5368709 5368709 5368709 5368709 5368709 6368709 6368709 6368709 6368709 0 10737418 10737418 999999 6368709 6368709 6368709 6368709 6368709 6368709 6368709 6368709 6368709 6368709 6368709 6368709 6368709 6368709 6368709 6368709 6368709 6368709 6368709 6368709 6368709 6368709 6368709 6368709 6368709 6368709 6368709 6368709 6368709 6368709 6368709 6368709 
5368709 5368709 5368709 5368709 5368709 6368709 6368709 6368709 6368709 6368709 6368709 6368709 6368709 999999 0 10737418 10737418 6368709 6368709 6368709 6368709 6368709 6368709 6368709 6368709 6368709 6368709 6368709 6368709 6368709 6368709 6368709 6368709 6368709 6368709 6368709 6368709 6368709 6368709 6368709 6368709 6368709 6368709 6368709 6368709 
5368709 5368709 5368709 5368709 5368709 6368709 6368709 6368709 6368709 6368709 6368709 6368709 6368709 10737418 999999 0 10737418 6368709 6368709 6368709 6368709 6368709 6368709 6368709 6368709 6368709 6368709 6368709 6368709 6368709 6368709 6368709 6368709 6368709 6368709 6368709 6368709 6368709 6368709 6368709 6368709 6368709 6368709 6368709 6368709 
5368709 5368709 5368709 5368709 5368709 6368709 6368709 6368709 6368709 6368709 6368709 6368709 6368709 10737418 10737418 999999 0 6368709 6368709 6368709 6368709 6368709 6368709 6368709 6368709 6368709 6368709 6368709 6368709 6368709 6368709 6368709 6368709 6368709 6368709 6368709 6368709 6368709 6368709 6368709 6368709 6368709 6368709 6368709 6368709 
5368709 5368709 5368709 5368709 5368709 6368709 6368709 6368709 6368709 6368709 6368709 6368709 6368709 0 10737418 10737418 999999 6368709 6368709 6368709 6368709 6368709 6368709 6368709 6368709 6368709 6368709 6368709 6368709 6368709 6368709 6368709 6368709 6368709 6368709 6368709 6368709 6368709 6368709 6368709 6368709 6368709 6368709 6368709 6368709 
5368709 5368709 5368709 5368709 5368709 6368709 6368709 6368709 6368709 6368709 6368709 6368709 6368709 6368709 6368709 6368709 6368709 999999 0 10737418 10737418 6368709 6368709 6368709 6368709 6368709 6368709 6368709 6368709 6368709 6368709 6368709 6368709 6368709 6368709 6368709 6368709 6368709 6368709 6368709 6368709 6368709 6368709 6368709 6368709 
5368709 5368709 5368709 5368709 5368709 6368709 6368709 6368709 6368709 6368709 6368709 6368709 6368709 6368709 6368709 6368709 6368709 10737418 999999 0 10737418 6368709 6368709 6368709 6368709 6368709 6368709 6368709 6368709 6368709 6368709 6368709 6368709 6368709 6368709 6368709 6368709 6368709 6368709 6368709 6368709 6368709 6368709 6368709 6368709 
5368709 5368709 5368709 5368709 5368709 6368709 6368709 6368709 6368709 6368709 6368709 6368709 6368709 6368709 6368709 6368709 6368709 10737418 10737418 999999 0 6368709 6368709 6368709 6368709 6368709 6368709 6368709 6368709 6368709 6368709 6368709 6368709 6368709 6368709 6368709 6368709 6368709 6368709 6368709 6368709 6368709 6368709 6368709 6368709 
5368709 5368709 5368709 5368709 5368709 6368709 6368709 6368709 6368709 6368709 6368709 6368709 6368709 6368709 6368709 6368709 6368709 0 10737418 10737418 999999 6368709 6368709 6368709 6368709 6368709 6368709 6368709 6368709 6368709 6368709 6368709 6368709 6368709 6368709 6368709 6368709 6368709 6368709 6368709 6368709 6368709 6368709 6368709 6368709 
5368709 5368709 5368709 5368709 5368709 6368709 6368709 6368709 6368709 6368709 6368709 6368709 6368709 6368709 6368709 6368709 6368709 6368709 6368709 6368709 6368709 999999 0 10737418 10737418 6368709 6368709 6368709 6368709 6368709 6368709 6368709 6368709 6368709 6368709 6368709 6368709 6368709 6368709 6368709 6368709 6368709 6368709 6368709 6368709 
5368709 5368709 5368709 5368709 5368709 6368709 6368709 6368709 6368709 6368709 6368709 6368709 6368709 6368709 6368709 6368709 6368709 6368709 6368709 6368709 6368709 10737418 999999 0 10737418 6368709 6368709 6368709 6368709 6368709 6368709 6368709 6368709 6368709 6368709 6368709 6368709 6368709 6368709 6368709 6368709 6368709 6368709 6368709 6368709 
5368709 5368709 5368709 5368709 5368709 6368709 6368709 6368709 6368709 6368709 6368709 6368709 6368709 6368709 6368709 6368709 6368709 6368709 6368709 6368709 6368709 10737418 10737418 999999 0 6368709 6368709 6368709 6368709 6368709 6368709 6368709 6368709 6368709 6368709 6368709 6368709 6368709 6368709 6368709 6368709 6368709 6368709 6368709 6368709 
5368709 5368709 5368709 5368709 5368709 6368709 6368709 6368709 6368709 6368709 6368709 6368709 6368709 6368709 6368709 6368709 6368709 6368709 6368709 6368709 6368709 0 10737418 10737418 999999 6368709 6368709 6368709 6368709 6368709 6368709 6368709 6368709 6368709 6368709 6368709 6368709 6368709 6368709 6368709 6368709 6368709 6368709 6368709 6368709 
5368709 5368709 5368709 5368709 5368709 6368709 6368709 6368709 6368709 6368709 6368709 6368709 6368709 6368709 6368709 6368709 6368709 6368709 6368709 6368709 6368709 6368709 6368709 6368709 6368709 999999 0 10737418 10737418 6368709 6368709 6368709 6368709 6368709 6368709 6368709 6368709 6368709 6368709 6368709 6368709 6368709 6368709 6368709 6368709 
5368709 5368709 5368709 5368709 5368709 6368709 6368709 6368709 6368709 6368709 6368709 6368709 6368709 6368709 6368709 6368709 6368709 6368709 6368709 6368709 6368709 6368709 6368709 6368709 6368709 10737418 999999 0 10737418 6368709 6368709 6368709 6368709 6368709 6368709 6368709 6368709 6368709 6368709 6368709 6368709 6368709 6368709 6368709 6368709 
5368709 5368709 5368709 5368709 5368709 6368709 6368709 6368709 6368709 6368709 6368709 6368709 6368709 6368709 6368709 6368709 6368709 6368709 6368709 6368709 6368709 6368709 6368709 6368709 6368709 10737418 10737418 999999 0 6368709 6368709 6368709 6368709 6368709 6368709 6368709 6368709 6368709 6368709 6368709 6368709 6368709 6368709 6368709 6368709 
5368709 5368709 5368709 5368709 5368709 6368709 6368709 6368709 6368709 6368709 6368709 6368709 6368709 6368709 6368709 6368709 6368709 6368709 6368709 6368709 6368709 6368709 6368709 6368709 6368709 0 10737418 10737418 999999 6368709 6368709 6368709 6368709 6368709 6368709 6368709 6368709 6368709 6368709 6368709 6368709 6368709 6368709 6368709 6368709 
5368709 5368709 5368709 5368709 5368709 6368709 6368709 6368709 6368709 6368709 6368709 6368709 6368709 6368709 6368709 6368709 6368709 6368709 6368709 6368709 6368709 6368709 6368709 6368709 6368709 6368709 6368709 6368709 6368709 999999 0 10737418 10737418 6368709 6368709 6368709 6368709 6368709 6368709 6368709 6368709 6368709 6368709 6368709 6368709 
5368709 5368709 5368709 5368709 5368709 6368709 6368709 6368709 6368709 6368709 6368709 6368709 6368709 6368709 6368709 6368709 6368709 6368709 6368709 6368709 6368709 6368709 6368709 6368709 6368709 6368709 6368709 6368709 6368709 10737418 999999 0 10737418 6368709 6368709 6368709 6368709 6368709 6368709 6368709 6368709 6368709 6368709 6368709 6368709 
5368709 5368709 5368709 5368709 5368709 6368709 6368709 6368709 6368709 6368709 6368709 6368709 6368709 6368709 6368709 6368709 6368709 6368709 6368709 6368709 6368709 6368709 6368709 6368709 6368709 6368709 6368709 6368709 6368709 10737418 10737418 999999 0 6368709 6368709 6368709 6368709 6368709 6368709 6368709 6368709 6368709 6368709 6368709 6368709 
5368709 5368709 5368709 5368709 5368709 6368709 6368709 6368709 6368709 6368709 6368709 6368709 6368709 6368709 6368709 6368709 6368709 6368709 6368709 6368709 6368709 6368709 6368709 6368709 6368709 6368709 6368709 6368709 6368709 0 10737418 10737418 999999 6368709 6368709 6368709 6368709 6368709 6368709 6368709 6368709 6368709 6368709 6368709 6368709 
5368709 5368709 5368709 5368709 5368709 6368709 6368709 6368709 6368709 6368709 6368709 6368709 6368709 6368709 6368709 6368709 6368709 6368709 6368709 6368709 6368709 6368709 6368709 6368709 6368709 6368709 6368709 6368709 6368709 6368709 6368709 6368709 6368709 999999 0 10737418 10737418 6368709 6368709 6368709 6368709 6368709 6368709 6368709 6368709 
5368709 5368709 5368709 5368709 5368709 6368709 6368709 6368709 6368709 6368709 6368709 6368709 6368709 6368709 6368709 6368709 6368709 6368709 6368709 6368709 6368709 6368709 6368709 6368709 6368709 6368709 6368709 6368709 6368709 6368709 6368709 6368709 6368709 10737418 999999 0 10737418 6368709 6368709 6368709 6368709 6368709 6368709 6368709 6368709 
5368709 5368709 5368709 5368709 5368709 6368709 6368709 6368709 6368709 6368709 6368709 6368709 6368709 6368709 6368709 6368709 6368709 6368709 6368709 6368709 6368709 6368709 6368709 6368709 6368709 6368709 6368709 6368709 6368709 6368709 6368709 6368709 6368709 10737418 10737418 999999 0 6368709 6368709 6368709 6368709 6368709 6368709 6368709 6368709 
5368709 5368709 5368709 5368709 5368709 6368709 6368709 6368709 6368709 6368709 6368709 6368709 6368709 6368709 6368709 6368709 6368709 6368709 6368709 6368709 6368709 6368709 6368709 6368709 6368709 6368709 6368709 6368709 6368709 6368709 6368709 6368709 6368709 0 10737418 10737418 999999 6368709 6368709 6368709 6368709 6368709 6368709 6368709 6368709 
5368709 5368709 5368709 5368709 5368709 6368709 6368709 6368709 6368709 6368709 6368709 6368709 6368709 6368709 6368709 6368709 6368709 6368709 6368709 6368709 6368709 6368709 6368709 6368709 6368709 6368709 6368709 6368709 6368709 6368709 6368709 6368709 6368709 6368709 6368709 6368709 6368709 999999 0 10737418 10737418 6368709 6368709 6368709 6368709 
5368709 5368709 5368709 5368709 5368709 6368709 6368709 6368709 6368709 6368709 6368709 6368709 6368709 6368709 6368709 6368709 6368709 6368709 6368709 6368709 6368709 6368709 6368709 6368709 6368709 6368709 6368709 6368709 6368709 6368709 6368709 6368709 6368709 6368709 6368709 6368709 6368709 10737418 999999 0 10737418 6368709 6368709 6368709 6368709 
5368709 5368709 5368709 5368709 5368709 6368709 6368709 6368709 6368709 6368709 6368709 6368709 6368709 6368709 6368709 6368709 6368709 6368709 6368709 6368709 6368709 6368709 6368709 6368709 6368709 6368709 6368709 6368709 6368709 6368709 6368709 6368709 6368709 6368709 6368709 6368709 6368709 10737418 10737418 999999 0 6368709 6368709 6368709 6368709 
5368709 5368709 5368709 5368709 5368709 6368709 6368709 6368709 6368709 6368709 6368709 6368709 6368709 6368709 6368709 6368709 6368709 6368709 6368709 6368709 6368709 6368709 6368709 6368709 6368709 6368709 6368709 6368709 6368709 6368709 6368709 6368709 6368709 6368709 6368709 6368709 6368709 0 10737418 10737418 999999 6368709 6368709 6368709 6368709 
5368709 5368709 5368709 5368709 5368709 6368709 6368709 6368709 6368709 6368709 6368709 6368709 6368709 6368709 6368709 6368709 6368709 6368709 6368709 6368709 6368709 6368709 6368709 6368709 6368709 6368709 6368709 6368709 6368709 6368709 6368709 6368709 6368709 6368709 6368709 6368709 6368709 6368709 6368709 6368709 6368709 999999 0 10737418 10737418 
5368709 5368709 5368709 5368709 5368709 6368709 6368709 6368709 6368709 6368709 6368709 6368709 6368709 6368709 6368709 6368709 6368709 6368709 6368709 6368709 6368709 6368709 6368709 6368709 6368709 6368709 6368709 6368709 6368709 6368709 6368709 6368709 6368709 6368709 6368709 6368709 6368709 6368709 6368709 6368709 6368709 10737418 999999 0 10737418 
5368709 5368709 5368709 5368709 5368709 6368709 6368709 6368709 6368709 6368709 6368709 6368709 6368709 6368709 6368709 6368709 6368709 6368709 6368709 6368709 6368709 6368709 6368709 6368709 6368709 6368709 6368709 6368709 6368709 6368709 6368709 6368709 6368709 6368709 6368709 6368709 6368709 6368709 6368709 6368709 6368709 10737418 10737418 999999 0 
5368709 5368709 5368709 5368709 5368709 6368709 6368709 6368709 6368709 6368709 6368709 6368709 6368709 6368709 6368709 6368709 6368709 6368709 6368709 6368709 6368709 6368709 6368709 6368709 6368709 6368709 6368709 6368709 6368709 6368709 6368709 6368709 6368709 6368709 6368709 6368709 6368709 6368709 6368709 6368709 6368709 0 10737418 10737418 999999 
EOF
